Instance name: /home/cuong/CLionProjects/uMV-FSTSP/50_dis_rand_ins/v6
Write arg val: 1

drone speed: 1 miles/minute
uav non-eligible customer: 1 7 11 
Printing tau:
0 4.83914 50.5553 72.7443 39.1512 63.1775 64.7399 61.1099 57.7033 105.257 107.243 0 
4.83914 0 49.041 71.23 37.637 61.6632 63.2256 59.5956 56.189 103.742 105.729 4.83914 
50.5553 49.041 0 22.189 39.6576 24.4039 31.4082 81.9885 68.9785 54.7013 56.6879 50.5553 
72.7443 71.23 22.189 0 49.8471 34.5933 41.5976 92.178 79.168 57.3568 55.0522 72.7443 
39.1512 37.637 39.6576 49.8471 0 24.0262 25.5886 42.3309 29.3209 66.1053 68.092 39.1512 
63.1775 61.6632 24.4039 34.5933 24.0262 0 7.0043 57.5846 44.5747 42.0791 44.0658 63.1775 
64.7399 63.2256 31.4082 41.5976 25.5886 7.0043 0 50.5803 37.5704 40.5167 42.5034 64.7399 
61.1099 59.5956 81.9885 92.178 42.3309 57.5846 50.5803 0 13.01 44.1466 46.1333 61.1099 
57.7033 56.189 68.9785 79.168 29.3209 44.5747 37.5704 13.01 0 47.5533 49.5399 57.7033 
105.257 103.742 54.7013 57.3568 66.1053 42.0791 40.5167 44.1466 47.5533 0 2.30464 105.257 
107.243 105.729 56.6879 55.0522 68.092 44.0658 42.5034 46.1333 49.5399 2.30464 0 107.243 
0 0 0 0 0 0 0 0 0 0 0 0 
Printing tau_prime:
0 0.717083 8.77652 12.1857 5.56102 9.08373 9.17853 10.8166 9.39967 14.9692 15.2183 0 
0.717083 0 8.21658 11.6473 5.45683 8.77258 8.94152 11.0777 9.57902 14.8451 15.0775 0.717083 
8.77652 8.21658 0 3.45305 5.83572 3.88553 4.87376 11.6906 9.80728 10.2147 10.2237 8.77652 
12.1857 11.6473 3.45305 0 8.50085 5.07587 5.99072 13.1394 11.3963 9.324 9.18795 12.1857 
5.56102 5.45683 5.83572 8.50085 0 4.02476 3.80219 6.74402 4.90692 9.40883 9.65775 5.56102 
9.08373 8.77258 3.88553 5.07587 4.02476 0 1.0149 8.14895 6.35117 6.76583 6.87074 9.08373 
9.17853 8.94152 4.87376 5.99072 3.80219 1.0149 0 7.17154 5.40564 6.14809 6.30485 9.17853 
10.8166 11.0777 11.6906 13.1394 6.74402 8.14895 7.17154 0 1.90192 7.95166 8.3745 10.8166 
9.39967 9.57902 9.80728 11.3963 4.90692 6.35117 5.40564 1.90192 0 7.39871 7.79202 9.39967 
14.9692 14.8451 10.2147 9.324 9.40883 6.76583 6.14809 7.95166 7.39871 0 0.430307 14.9692 
15.2183 15.0775 10.2237 9.18795 9.65775 6.87074 6.30485 8.3745 7.79202 0.430307 0 15.2183 
0 0 0 0 0 0 0 0 0 0 0 0 
Version identifier: 22.1.1.0 | 2022-11-28 | 9160aff4d
CPXPARAM_MIP_Tolerances_Integrality              0
Tried aggregator 1 time.
MIP Presolve eliminated 1 rows and 12 columns.
MIP Presolve modified 20 coefficients.
Reduced MIP has 122 rows, 120 columns, and 510 nonzeros.
Reduced MIP has 110 binaries, 0 generals, 0 SOSs, and 0 indicators.
Presolve time = 0.00 sec. (0.27 ticks)
Found incumbent of value 553.059100 after 0.00 sec. (0.75 ticks)
Probing time = 0.00 sec. (0.26 ticks)
Cover probing fixed 0 vars, tightened 10 bounds.
Tried aggregator 1 time.
Detecting symmetries...
MIP Presolve eliminated 10 rows and 0 columns.
MIP Presolve modified 180 coefficients.
Reduced MIP has 112 rows, 120 columns, and 490 nonzeros.
Reduced MIP has 110 binaries, 0 generals, 0 SOSs, and 0 indicators.
Presolve time = 0.00 sec. (0.35 ticks)
Probing time = 0.00 sec. (0.26 ticks)
Clique table members: 67.
MIP emphasis: balance optimality and feasibility.
MIP search method: dynamic search.
Parallel mode: deterministic, using up to 20 threads.
Root relaxation solution time = 0.00 sec. (0.21 ticks)

        Nodes                                         Cuts/
   Node  Left     Objective  IInf  Best Integer    Best Bound    ItCnt     Gap

*     0+    0                          553.0591        0.0000           100.00%
      0     0      158.9173    20      553.0591      158.9173       26   71.27%
      0     0      232.6984    18      553.0591      Cuts: 26       46   57.93%
*     0+    0                          351.2801      232.6984            33.76%
      0     0      232.6984    18      351.2801      Cuts: 22       66   33.76%
      0     0      232.6984    18      351.2801      Cuts: 11       80   33.76%
*     0+    0                          293.8786      232.6984            20.82%
*     0+    0                          288.1035      232.6984            19.23%
Detecting symmetries...
      0     2      232.6984    18      288.1035      232.6984       80   19.23%
Elapsed time = 0.08 sec. (8.89 ticks, tree = 0.02 MB, solutions = 4)

Clique cuts applied:  4
Implied bound cuts applied:  301
Mixed integer rounding cuts applied:  8
Multi commodity flow cuts applied:  2
Gomory fractional cuts applied:  2

Root node processing (before b&c):
  Real time             =    0.07 sec. (8.83 ticks)
Parallel b&c, 20 threads:
  Real time             =    0.03 sec. (17.00 ticks)
  Sync time (average)   =    0.01 sec.
  Wait time (average)   =    0.00 sec.
                          ------------
Total (root+branch&cut) =    0.10 sec. (25.83 ticks)

TSP solution for this instance: 0 1 2 3 5 6 9 10 7 8 4 11 
12
Warmstart X[1][0] == 1
Warmstart X[2][1] == 1
Warmstart X[3][2] == 1
Warmstart X[4][3] == 1
Warmstart X[5][5] == 1
Warmstart X[6][6] == 1
Warmstart X[7][9] == 1
Warmstart X[8][10] == 1
Warmstart X[9][7] == 1
Warmstart X[10][8] == 1
Warmstart X[11][4] == 1
---------------------------------------------
Calculate max stage gap for sortie.... 
Stage gap calculation consumes too much memory. No constraint was added.
---------------------------------------------
Num constraint added = 0
Warning:  Output names have been modified due to duplicate names or characters invalid in LP format.
Version identifier: 22.1.1.0 | 2022-11-28 | 9160aff4d
CPXPARAM_TimeLimit                               200
CPXPARAM_MIP_Tolerances_Integrality              0
1 of 1 MIP starts provided solutions.
MIP start 'm1' defined initial solution with objective 288.1035.
Tried aggregator 2 times.
MIP Presolve eliminated 4056 rows and 1468 columns.
MIP Presolve modified 2820 coefficients.
Aggregator did 24 substitutions.
Reduced MIP has 1541 rows, 3284 columns, and 37518 nonzeros.
Reduced MIP has 3263 binaries, 0 generals, 0 SOSs, and 0 indicators.
Presolve time = 0.03 sec. (81.05 ticks)
Probing fixed 167 vars, tightened 0 bounds.
Probing changed sense of 4 constraints.
Probing time = 0.05 sec. (109.82 ticks)
Cover probing fixed 0 vars, tightened 22 bounds.
Tried aggregator 2 times.
Detecting symmetries...
MIP Presolve eliminated 62 rows and 171 columns.
MIP Presolve modified 687 coefficients.
Aggregator did 14 substitutions.
Reduced MIP has 1465 rows, 3099 columns, and 35098 nonzeros.
Reduced MIP has 3078 binaries, 0 generals, 0 SOSs, and 0 indicators.
Presolve time = 0.03 sec. (66.19 ticks)
Probing time = 0.00 sec. (6.71 ticks)
Clique table members: 11923.
MIP emphasis: balance optimality and feasibility.
MIP search method: dynamic search.
Parallel mode: deterministic, using up to 20 threads.
Root relaxation solution time = 0.13 sec. (263.61 ticks)

        Nodes                                         Cuts/
   Node  Left     Objective  IInf  Best Integer    Best Bound    ItCnt     Gap

*     0+    0                          288.1035        4.8391            98.32%
      0     0      154.8236   128      288.1035      154.8236       36   46.26%
*     0+    0                          271.7263      154.8236            43.02%
      0     0      161.2231   143      271.7263      Cuts: 25     1970   40.67%
      0     0      162.5555   181      271.7263      Cuts: 31     3639   40.03%
      0     0      163.0404   168      271.7263      Cuts: 32     4674   40.00%
*     0+    0                          230.9334      163.0404            29.40%
      0     0      163.1566   175      230.9334      Cuts: 25     5987   29.14%
      0     0      164.1412   215      230.9334      Cuts: 21     7432   28.78%
Detecting symmetries...
*     0+    0                          221.5345      164.4802            25.75%
      0     0      164.6124   190      221.5345      Cuts: 23     7987   25.69%
      0     0      164.9202   196      221.5345      Cuts: 17     9271   25.56%
      0     0      165.0895   189      221.5345      Cuts: 13     9939   25.48%
      0     0      165.6193   218      221.5345      Cuts: 13    10527   25.24%
      0     0      165.6219   209      221.5345      Cuts: 15    10760   25.24%
      0     0      165.6219   204      221.5345   ZeroHalf: 2    10943   25.24%
Detecting symmetries...
      0     2      165.6219   204      221.5345      165.8974    10943   25.11%
Elapsed time = 2.22 sec. (3841.33 ticks, tree = 0.02 MB, solutions = 4)
      2     3      166.1226   167      221.5345      165.8974    13210   25.11%
      9     3        cutoff            221.5345      167.2129    18034   24.52%
    370    28        cutoff            221.5345      170.5894    44635   23.00%
   1312   207      215.2580    91      221.5345      171.6404   112082   22.52%
   2084   434      210.6643    41      221.5345      175.3085   176638   20.87%
   2360   453      201.9986    74      221.5345      175.3085   210690   20.87%
   2765    83      196.9522    80      221.5345      175.3085   246313   20.87%
   3410    52        cutoff            221.5345      175.3085   284597   20.87%
*  4271+  110                          221.5344      175.3085            20.87%
   4367   213      214.5820    92      221.5344      175.3085   345690   20.87%
   8199   424    infeasible            221.5344      187.2339   542096   15.48%
Elapsed time = 5.21 sec. (7020.23 ticks, tree = 0.44 MB, solutions = 5)

Performing restart 1

Repeating presolve.
Tried aggregator 2 times.
MIP Presolve eliminated 17 rows and 338 columns.
MIP Presolve modified 11008 coefficients.
Aggregator did 14 substitutions.
Reduced MIP has 1434 rows, 2747 columns, and 27875 nonzeros.
Reduced MIP has 2726 binaries, 0 generals, 0 SOSs, and 0 indicators.
Presolve time = 0.04 sec. (70.66 ticks)
Tried aggregator 1 time.
MIP Presolve eliminated 23 rows and 36 columns.
MIP Presolve modified 162 coefficients.
Reduced MIP has 1411 rows, 2711 columns, and 27364 nonzeros.
Reduced MIP has 2690 binaries, 0 generals, 0 SOSs, and 0 indicators.
Presolve time = 0.02 sec. (37.00 ticks)
Tried aggregator 1 time.
MIP Presolve modified 94 coefficients.
Reduced MIP has 1411 rows, 2711 columns, and 27355 nonzeros.
Reduced MIP has 2690 binaries, 0 generals, 0 SOSs, and 0 indicators.
Presolve time = 0.01 sec. (25.65 ticks)
Represolve time = 0.19 sec. (342.56 ticks)
   9258     0      166.8323   216      221.5344      Cuts: 16   632031   14.93%
   9258     0      166.8710   214      221.5344      Cuts: 32   633552   14.93%
   9258     0      166.9553   158      221.5344      Cuts: 16   634957   14.93%
   9258     0      167.6531   248      221.5344      Cuts: 38   637115   14.93%
   9258     0      167.7017   255      221.5344      Cuts: 11   638371   14.93%
   9258     0      167.7017   244      221.5344       Cuts: 4   638642   14.93%
   9258     0      167.7017   250      221.5344       Cuts: 4   638937   14.93%
   9258     2      167.7017   241      221.5344      188.4678   638937   14.93%
   9262     3      193.0976    75      221.5344      188.4678   641771   14.93%
   9825    72      216.3724    25      221.5344      188.4678   671294   14.93%
  11711    26      167.9215   200      221.5344      188.4678   731395   14.93%
  12021    30      215.6538    45      221.5344      188.4678   772789   14.93%
  12655    16        cutoff            221.5344      188.4678   806288   14.93%
  13372    11      197.0624    54      221.5344      188.4678   842009   14.93%
  13634     6      212.9450   116      221.5344      188.4678   873195   14.93%
  14086    33      199.2727    77      221.5344      188.4678   898101   14.93%
  14545    20      213.6432   130      221.5344      188.4678   944263   14.93%
Elapsed time = 16.23 sec. (22060.96 ticks, tree = 0.09 MB, solutions = 5)
  14977    16      191.7641   147      221.5344      188.4678   997021   14.93%
  15617    10        cutoff            221.5344      188.4678  1042750   14.93%
  16059    18        cutoff            221.5344      188.4678  1066971   14.93%
  16618    29        cutoff            221.5344      188.4678  1102768   14.93%
  16915    20      215.2040   166      221.5344      193.6790  1140119   12.57%

GUB cover cuts applied:  8
Clique cuts applied:  14
Cover cuts applied:  37
Implied bound cuts applied:  2
Flow cuts applied:  1
Mixed integer rounding cuts applied:  5
Zero-half cuts applied:  20
Lift and project cuts applied:  1
Gomory fractional cuts applied:  4

Root node processing (before b&c):
  Real time             =    2.17 sec. (3760.23 ticks)
Parallel b&c, 20 threads:
  Real time             =   18.32 sec. (23914.70 ticks)
  Sync time (average)   =    9.21 sec.
  Wait time (average)   =    0.01 sec.
                          ------------
Total (root+branch&cut) =   20.49 sec. (27674.93 ticks)
Feasible solution found!
Truck nodes:
Stage 1 at customer 0 with arrival time is: 0
Stage 1 at customer 0 with departure time is: 0
Stage 2 at customer 1 with arrival time is: 4.83914
Stage 2 at customer 1 with departure time is: 4.83914
Stage 3 at customer 7 with arrival time is: 64.4347
Stage 3 at customer 7 with departure time is: 65.4347
Stage 4 at customer 8 with arrival time is: 78.4447
Stage 4 at customer 8 with departure time is: 81.7851
Stage 5 at customer 6 with arrival time is: 119.356
Stage 5 at customer 6 with departure time is: 120.356
Stage 6 at customer 5 with arrival time is: 127.36
Stage 6 at customer 5 with departure time is: 133.422
Stage 7 at customer 6 with arrival time is: 140.426
Stage 7 at customer 6 with departure time is: 148.598
Stage 8 at customer 5 with arrival time is: 155.602
Stage 8 at customer 5 with departure time is: 158.357
Stage 9 at customer 4 with arrival time is: 182.383
Stage 9 at customer 4 with departure time is: 182.383
Stage 10 at customer 11 with arrival time is: 221.534
Stage 10 at customer 11 with departure time is: 221.534
Truck arcs:
Arc 1 connecting 0 and 1 with cost 4.83914 
Arc 2 connecting 1 and 7 with cost 59.5956 
Arc 3 connecting 7 and 8 with cost 13.01 
Arc 4 connecting 8 and 6 with cost 37.5704 
Arc 5 connecting 6 and 5 with cost 7.0043 
Arc 6 connecting 5 and 6 with cost 7.0043 
Arc 7 connecting 6 and 5 with cost 7.0043 
Arc 8 connecting 5 and 4 with cost 24.0262 
Arc 9 connecting 4 and 11 with cost 39.1512 
Customer 2 served by drone.
Drone fly from 6 at stage 7 to serve 2 and then fly back to 5 at stage 8. 
Truck arcs during this sortie: 6--->5
Truck travel time from stage 7 to 8 is: 7.0043
Total drone travel time: 8.75929
Drone arrival time: 157.357
Truck arrival time: 155.602
Truck departure time = max(d/a, t/a) plus (sl/sr): 158.357
Customer 3 served by drone.
Drone fly from 6 at stage 5 to serve 3 and then fly back to 5 at stage 6. 
Truck arcs during this sortie: 6--->5
Truck travel time from stage 5 to 6 is: 7.0043
Total drone travel time: 11.0666
Drone arrival time: 131.422
Truck arrival time: 127.36
Truck departure time = max(d/a, t/a) plus (sl/sr): 133.422
Customer 9 served by drone.
Drone fly from 7 at stage 3 to serve 9 and then fly back to 8 at stage 4. 
Truck arcs during this sortie: 7--->8
Truck travel time from stage 3 to 4 is: 13.01
Total drone travel time: 15.3504
Drone arrival time: 80.7851
Truck arrival time: 78.4447
Truck departure time = max(d/a, t/a) plus (sl/sr): 81.7851
Customer 10 served by drone.
Drone fly from 5 at stage 6 to serve 10 and then fly back to 6 at stage 7. 
Truck arcs during this sortie: 5--->6
Truck travel time from stage 6 to 7 is: 7.0043
Total drone travel time: 13.1756
Drone arrival time: 146.598
Truck arrival time: 140.426
Truck departure time = max(d/a, t/a) plus (sl/sr): 148.598
Done!
-------------------------Re-calculated objective-----------------------
221.534
------------------------------------------------------------------------
Solve time: 20.495
Node 5 was revisited 1 times!
Node 6 was revisited 1 times!
OBJECTIVE VALUE: 221.534, NUMBER OF SORTIES: 4.
Number of revisit: 2
In write mode
